Minimize
 obj: 0 X_0_1
Subject To
 out_0:
  + 1 X_0_1 + 1 X_0_2 + 1 X_0_3 + 1 X_0_4
  = 1
 in_0:
  + 1 X_1_0 + 1 X_2_0 + 1 X_3_0 + 1 X_4_0
  = 1
 out_1:
  + 1 X_1_0 + 1 X_1_2 + 1 X_1_3 + 1 X_1_4
  = 1
 in_1:
  + 1 X_0_1 + 1 X_2_1 + 1 X_3_1 + 1 X_4_1
  = 1
 out_2:
  + 1 X_2_0 + 1 X_2_1 + 1 X_2_3 + 1 X_2_4
  = 1
 in_2:
  + 1 X_0_2 + 1 X_1_2 + 1 X_3_2 + 1 X_4_2
  = 1
 out_3:
  + 1 X_3_0 + 1 X_3_1 + 1 X_3_2 + 1 X_3_4
  = 1
 in_3:
  + 1 X_0_3 + 1 X_1_3 + 1 X_2_3 + 1 X_4_3
  = 1
 out_4:
  + 1 X_4_0 + 1 X_4_1 + 1 X_4_2 + 1 X_4_3
  = 1
 in_4:
  + 1 X_0_4 + 1 X_1_4 + 1 X_2_4 + 1 X_3_4
  = 1
 mtz_1_2:
  + 1 U1 - 1 U2 + 4 X_1_2
  <= 3
 mtz_1_3:
  + 1 U1 - 1 U3 + 4 X_1_3
  <= 3
 mtz_1_4:
  + 1 U1 - 1 U4 + 4 X_1_4
  <= 3
 mtz_2_1:
  + 1 U2 - 1 U1 + 4 X_2_1
  <= 3
 mtz_2_3:
  + 1 U2 - 1 U3 + 4 X_2_3
  <= 3
 mtz_2_4:
  + 1 U2 - 1 U4 + 4 X_2_4
  <= 3
 mtz_3_1:
  + 1 U3 - 1 U1 + 4 X_3_1
  <= 3
 mtz_3_2:
  + 1 U3 - 1 U2 + 4 X_3_2
  <= 3
 mtz_3_4:
  + 1 U3 - 1 U4 + 4 X_3_4
  <= 3
 mtz_4_1:
  + 1 U4 - 1 U1 + 4 X_4_1
  <= 3
 mtz_4_2:
  + 1 U4 - 1 U2 + 4 X_4_2
  <= 3
 mtz_4_3:
  + 1 U4 - 1 U3 + 4 X_4_3
  <= 3
 obj1:
  + 825 X_0_1 + 290 X_0_2 + 773 X_0_3 + 690 X_0_4 + 825 X_1_0 + 893 X_1_2 + 343 X_1_3 + 530 X_1_4
  + 290 X_2_0 + 893 X_2_1 + 723 X_2_3 + 571 X_2_4 + 773 X_3_0 + 343 X_3_1 + 723 X_3_2 + 209 X_3_4
  + 690 X_4_0 + 530 X_4_1 + 571 X_4_2 + 209 X_4_3
  <= 1
 obj2:
  + 586 X_0_1 + 268 X_0_2 + 64 X_0_3 + 900 X_0_4 + 586 X_1_0 + 666 X_1_2 + 582 X_1_3 + 636 X_1_4
  + 268 X_2_0 + 666 X_2_1 + 206 X_2_3 + 758 X_2_4 + 64 X_3_0 + 582 X_3_1 + 206 X_3_2 + 851 X_3_4
  + 900 X_4_0 + 636 X_4_1 + 758 X_4_2 + 851 X_4_3
  <= 2
 obj3:
  + 276 X_0_1 + 952 X_0_2 + 406 X_0_3 + 713 X_0_4 + 276 X_1_0 + 699 X_1_2 + 224 X_1_3 + 447 X_1_4
  + 952 X_2_0 + 699 X_2_1 + 767 X_2_3 + 262 X_2_4 + 406 X_3_0 + 224 X_3_1 + 767 X_3_2 + 505 X_3_4
  + 713 X_4_0 + 447 X_4_1 + 262 X_4_2 + 505 X_4_3
  <= 3
 obj4:
  + 222 X_0_1 + 278 X_0_2 + 683 X_0_3 + 393 X_0_4 + 222 X_1_0 + 128 X_1_2 + 536 X_1_3 + 567 X_1_4
  + 278 X_2_0 + 128 X_2_1 + 418 X_2_3 + 538 X_2_4 + 683 X_3_0 + 536 X_3_1 + 418 X_3_2 + 793 X_3_4
  + 393 X_4_0 + 567 X_4_1 + 538 X_4_2 + 793 X_4_3
  <= 4
Bounds
 1 <= U1 <= 4
 1 <= U2 <= 4
 1 <= U3 <= 4
 1 <= U4 <= 4
Binary
 X_0_1
 X_0_2
 X_0_3
 X_0_4
 X_1_0
 X_1_2
 X_1_3
 X_1_4
 X_2_0
 X_2_1
 X_2_3
 X_2_4
 X_3_0
 X_3_1
 X_3_2
 X_3_4
 X_4_0
 X_4_1
 X_4_2
 X_4_3
End
